(set-info :smt-lib-version 2.6)
(set-logic QF_NIA)
(set-info :source |
Generated by: Cristina Borralleras, Daniel Larraz, Albert Oliveras, Enric Rodriguez-Carbonell, Albert Rubio
Generated on: 2017-04-27
Generator: VeryMax
Application: Termination proving
Target solver: barcelogic
|)
(set-info :license "https://creativecommons.org/licenses/by/4.0/")
(set-info :category "industrial")
(set-info :status unsat)
(declare-fun Nl2main_x1 () Int)
(declare-fun Nl2main_c1 () Int)
(declare-fun lam0n0 () Int)
(declare-fun lam0n1 () Int)
(declare-fun lam0n2 () Int)
(declare-fun Nl2CT1 () Int)
(declare-fun lam1n0 () Int)
(declare-fun lam1n1 () Int)
(declare-fun lam1n2 () Int)
(declare-fun lam2n0 () Int)
(declare-fun lam2n1 () Int)
(declare-fun lam2n2 () Int)
(declare-fun lam3n0 () Int)
(declare-fun lam3n1 () Int)
(declare-fun lam3n2 () Int)
(declare-fun lam4n1 () Int)
(declare-fun lam4n0 () Int)
(assert ( and ( <= ( - 11 ) Nl2main_x1 ) ( <= Nl2main_x1 11 ) ( <= ( - 11 ) Nl2main_c1 ) ( <= Nl2main_c1 11 ) ))
(assert ( or ( and ( >= lam0n0 0 ) ( >= lam0n1 0 ) ( >= lam0n2 0 ) ( > ( + ( * 1 lam0n0 ) ( * 101 lam0n1 ) ( * Nl2CT1 lam0n2 ) ( - 1 ) ) 0 ) ( = ( + ( * ( - 1 ) lam0n1 ) ( * Nl2main_x1 lam0n2 ) ) 0 ) ( = ( + ( * ( - 1 ) lam0n0 ) ( * Nl2main_c1 lam0n2 ) ) 0 ) ) ( and ( >= lam1n0 0 ) ( >= lam1n1 0 ) ( >= lam1n2 0 ) ( > ( + ( * 1 lam1n0 ) ( * 101 lam1n1 ) ( * Nl2CT1 lam1n2 ) ( - 1 ( + ( + Nl2CT1 ( * Nl2main_x1 ( - 10 ) ) ) ( * Nl2main_c1 ( - 1 ) ) ) ) ) 0 ) ( = ( + ( * ( - 1 ) lam1n1 ) ( * Nl2main_x1 lam1n2 ) ( - ( + 0 ( * Nl2main_x1 1 ) ) ) ) 0 ) ( = ( + ( * ( - 1 ) lam1n0 ) ( * Nl2main_c1 lam1n2 ) ( - ( + 0 ( * Nl2main_c1 1 ) ) ) ) 0 ) ) ))
(assert ( or ( and ( >= lam2n0 0 ) ( >= lam2n1 0 ) ( >= lam2n2 0 ) ( > ( + ( * 1 lam2n0 ) ( * ( - 100 ) lam2n1 ) ( * Nl2CT1 lam2n2 ) ( - 1 ) ) 0 ) ( = ( + ( * 1 lam2n1 ) ( * Nl2main_x1 lam2n2 ) ) 0 ) ( = ( + ( * ( - 1 ) lam2n0 ) ( * Nl2main_c1 lam2n2 ) ) 0 ) ) ( and ( >= lam3n0 0 ) ( >= lam3n1 0 ) ( >= lam3n2 0 ) ( > ( + ( * 1 lam3n0 ) ( * ( - 100 ) lam3n1 ) ( * Nl2CT1 lam3n2 ) ( - 1 ( + ( + Nl2CT1 ( * Nl2main_x1 11 ) ) ( * Nl2main_c1 1 ) ) ) ) 0 ) ( = ( + ( * 1 lam3n1 ) ( * Nl2main_x1 lam3n2 ) ( - ( + 0 ( * Nl2main_x1 1 ) ) ) ) 0 ) ( = ( + ( * ( - 1 ) lam3n0 ) ( * Nl2main_c1 lam3n2 ) ( - ( + 0 ( * Nl2main_c1 1 ) ) ) ) 0 ) ) ))
(assert ( and ( > ( + ( * ( - 1 ) lam4n1 ) ( - 1 Nl2CT1 ) ) 0 ) ( = ( + ( * 1 lam4n0 ) ( - ( + 0 Nl2main_x1 ) ) ) 0 ) ( = ( + ( * 1 lam4n1 ) ( - ( + 0 Nl2main_c1 ) ) ) 0 ) ( = ( * ( - 1 ) lam4n0 ) 0 ) ))
(assert ( or ( and ( >= lam0n0 0 ) ( >= lam0n1 0 ) ( >= lam0n2 0 ) ( > ( + ( * 1 lam0n0 ) ( * 101 lam0n1 ) ( * Nl2CT1 lam0n2 ) ( - 1 ) ) 0 ) ( = ( + ( * ( - 1 ) lam0n1 ) ( * Nl2main_x1 lam0n2 ) ) 0 ) ( = ( + ( * ( - 1 ) lam0n0 ) ( * Nl2main_c1 lam0n2 ) ) 0 ) ) ( and ( >= lam2n0 0 ) ( >= lam2n1 0 ) ( >= lam2n2 0 ) ( > ( + ( * 1 lam2n0 ) ( * ( - 100 ) lam2n1 ) ( * Nl2CT1 lam2n2 ) ( - 1 ) ) 0 ) ( = ( + ( * 1 lam2n1 ) ( * Nl2main_x1 lam2n2 ) ) 0 ) ( = ( + ( * ( - 1 ) lam2n0 ) ( * Nl2main_c1 lam2n2 ) ) 0 ) ) ))
(check-sat)
(exit)
